#######################################
### Exact MIP solver for the HHCRSP ###
#######################################
-- Instance file: new-instances/HHCRSP_300_60_9_1.6_R_RC.txt
-- Max threads: 4
-- Time limit: 999999 seconds
-- Use initial solution: No
Trivial flow violations prevented generating 1164820 variables.
Version identifier: 20.1.0.0 | 2020-11-10 | 9bedb6d68
CPXPARAM_Threads                                 4
CPXPARAM_TimeLimit                               999999
Parallel mode: deterministic, using up to 4 threads for concurrent optimization:
 * Starting dual Simplex on 1 thread...
 * Starting Barrier on 3 threads...
Tried aggregator 1 time.
LP Presolve eliminated 44778 rows and 9472 columns.
Reduced LP has 1172552 rows, 1114298 columns, and 25735367 nonzeros.
Presolve time = 28.55 sec. (5686.84 ticks)
Symmetry aggregator did 1867189 additional substitutions.

Iteration log . . .
Iteration:     1   Dual objective     =             0.000000
Iteration:  1347   Dual objective     =           374.333333

Dual crossover.
  Dual:  Fixing 1783 variables.
     1782 DMoves:  Infeasibility  1.56719082e-12  Objective  3.75333333e+02
        0 DMoves:  Infeasibility  6.47565335e-13  Objective  3.75333333e+02
  Dual:  Pushed 33, exchanged 1750.
  Primal:  Fixing 1070 variables.
     1069 PMoves:  Infeasibility  7.21644966e-16  Objective  3.75333333e+02
        0 PMoves:  Infeasibility  1.34614542e-15  Objective  3.75333333e+02
  Primal:  Pushed 914, exchanged 156.

Dual simplex solved model.


Solution status from MIP model:
-- Processing time: 47.501 sec.
-- Memory used: 1045.2 MB
-- Best bound: inf
-- Obj value: 375.333
-- Gap: inf%
-- Total distance: 1126
-- Total tardiness: 0
-- Largest tardiness: 0
